
Gurobi 8.1.1 (win64, Python) logging started 12/23/19 02:15:52

Academic license - for non-commercial use only

Gurobi 8.1.1 (win64, Python) logging started 12/23/19 02:20:56

Academic license - for non-commercial use only
<<<<<<< HEAD

Gurobi 8.1.1 (win64, Python) logging started 12/23/19 17:02:46

Academic license - for non-commercial use only

Gurobi 8.1.1 (win64, Python) logging started 12/23/19 19:54:27

Academic license - for non-commercial use only

Gurobi 8.1.1 (win64, Python) logging started 12/23/19 20:04:23

Academic license - for non-commercial use only

Gurobi 8.1.1 (win64, Python) logging started 12/24/19 12:58:16

Academic license - for non-commercial use only

Gurobi 8.1.1 (win64, Python) logging started 12/24/19 12:59:24

Academic license - for non-commercial use only

Gurobi 8.1.1 (win64, Python) logging started 12/24/19 13:05:44

Academic license - for non-commercial use only

Gurobi 8.1.1 (win64, Python) logging started 12/24/19 13:16:56

Academic license - for non-commercial use only

Gurobi 8.1.1 (win64, Python) logging started 12/24/19 13:17:40

Academic license - for non-commercial use only

Gurobi 8.1.1 (win64, Python) logging started 12/24/19 13:18:38

Academic license - for non-commercial use only

Gurobi 8.1.1 (win64, Python) logging started 12/24/19 13:19:34

Academic license - for non-commercial use only

Gurobi 8.1.1 (win64, Python) logging started 12/24/19 18:00:40

Academic license - for non-commercial use only

Gurobi 8.1.1 (win64, Python) logging started 12/25/19 16:27:22

Academic license - for non-commercial use only

Gurobi 8.1.1 (win64, Python) logging started 12/25/19 17:06:51

Academic license - for non-commercial use only

Gurobi 8.1.1 (win64, Python) logging started 12/25/19 17:13:41

Academic license - for non-commercial use only

Gurobi 8.1.1 (win64, Python) logging started 12/25/19 17:17:57

Academic license - for non-commercial use only
<<<<<<< HEAD

Gurobi 8.1.1 (win64, Python) logging started 12/25/19 18:52:00

Academic license - for non-commercial use only
=======
>>>>>>> parent of 6baaf7e... test

Gurobi 8.1.1 (win64, Python) logging started 12/25/19 18:57:15

Academic license - for non-commercial use only
=======
>>>>>>> parent of 1f3b6e0... test failed

Gurobi 8.1.1 (win64, Python) logging started 12/25/19 18:58:40

Academic license - for non-commercial use only

Gurobi 8.1.1 (win64, Python) logging started 12/25/19 21:28:46

Academic license - for non-commercial use only

Gurobi 8.1.1 (win64, Python) logging started 12/25/19 21:49:03

Academic license - for non-commercial use only
